p cnf 225 1
225 0
w 1 0.95236
w 2 1 1
w 2 -1 0
w 3 2 0
w 3 -2 1
w 4 3 0.717181
w 4 -3 0.430988
w 5 4 0.843369
w 5 -4 0.310327
w 6 5 0
w 6 -5 1
w 7 6 0.374615
w 7 -6 0.295029
w 8 7 0
w 8 -7 1
w 9 8 1
w 9 -8 0
w 10 9 0.903499
w 10 -9 0.981606
w 11 10 0.778617
w 11 -10 0.652653
w 12 11 1
w 12 -11 0
w 13 12 1
w 13 -12 0
w 14 13 0
w 14 -13 1
w 15 14 0
w 15 -14 1
w 16 1 1
w 16 -1 0
w 17 16 2 0.960807
w 17 16 -2 0.799899
w 17 -16 2 0.321087
w 17 -16 -2 0.804175
w 18 17 3 1
w 18 17 -3 1
w 18 -17 3 0
w 18 -17 -3 0
w 19 18 4 0.0727743
w 19 18 -4 0.878697
w 19 -18 4 0.686151
w 19 -18 -4 0.884738
w 20 19 5 0.58965
w 20 19 -5 0.866345
w 20 -19 5 0.436346
w 20 -19 -5 0.368267
w 21 20 6 0.907433
w 21 20 -6 0.390338
w 21 -20 6 0.767048
w 21 -20 -6 0.597611
w 22 21 7 0.967457
w 22 21 -7 0.737503
w 22 -21 7 0.48254
w 22 -21 -7 0.211083
w 23 22 8 1
w 23 22 -8 1
w 23 -22 8 0
w 23 -22 -8 1
w 24 23 9 0.0165392
w 24 23 -9 0.00862532
w 24 -23 9 0.211221
w 24 -23 -9 0.95445
w 25 24 10 0.741405
w 25 24 -10 0.0272247
w 25 -24 10 0.705301
w 25 -24 -10 0.427556
w 26 25 11 0.450752
w 26 25 -11 0.0172053
w 26 -25 11 0.778308
w 26 -25 -11 0.887099
w 27 26 12 1
w 27 26 -12 1
w 27 -26 12 0
w 27 -26 -12 1
w 28 27 13 1
w 28 27 -13 1
w 28 -27 13 0
w 28 -27 -13 0
w 29 28 14 1
w 29 28 -14 1
w 29 -28 14 0
w 29 -28 -14 1
w 30 29 15 1
w 30 29 -15 0
w 30 -29 15 1
w 30 -29 -15 1
w 31 16 1
w 31 -16 0
w 32 31 17 1
w 32 31 -17 1
w 32 -31 17 0
w 32 -31 -17 1
w 33 32 18 0.830859
w 33 32 -18 0.469469
w 33 -32 18 0.173707
w 33 -32 -18 0.128166
w 34 33 19 0
w 34 33 -19 1
w 34 -33 19 0
w 34 -33 -19 1
w 35 34 20 1
w 35 34 -20 1
w 35 -34 20 0
w 35 -34 -20 1
w 36 35 21 1
w 36 35 -21 0
w 36 -35 21 0
w 36 -35 -21 0
w 37 36 22 0
w 37 36 -22 0
w 37 -36 22 0
w 37 -36 -22 1
w 38 37 23 0
w 38 37 -23 1
w 38 -37 23 0
w 38 -37 -23 0
w 39 38 24 1
w 39 38 -24 0
w 39 -38 24 1
w 39 -38 -24 1
w 40 39 25 1
w 40 39 -25 0
w 40 -39 25 0
w 40 -39 -25 0
w 41 40 26 0
w 41 40 -26 0
w 41 -40 26 0
w 41 -40 -26 1
w 42 41 27 1
w 42 41 -27 1
w 42 -41 27 1
w 42 -41 -27 0
w 43 42 28 1
w 43 42 -28 0
w 43 -42 28 1
w 43 -42 -28 0
w 44 43 29 0.0854264
w 44 43 -29 0.608078
w 44 -43 29 0.710362
w 44 -43 -29 0.715068
w 45 44 30 0.488026
w 45 44 -30 0.175569
w 45 -44 30 0.851975
w 45 -44 -30 0.439398
w 46 31 0.97266
w 46 -31 0.340287
w 47 46 32 0.749488
w 47 46 -32 0.489804
w 47 -46 32 0.550939
w 47 -46 -32 0.312108
w 48 47 33 0.0236818
w 48 47 -33 0.896579
w 48 -47 33 0.905506
w 48 -47 -33 0.378432
w 49 48 34 0.788605
w 49 48 -34 0.00603992
w 49 -48 34 0.717109
w 49 -48 -34 0.918613
w 50 49 35 0.225445
w 50 49 -35 0.721847
w 50 -49 35 0.229506
w 50 -49 -35 0.310871
w 51 50 36 1
w 51 50 -36 0
w 51 -50 36 1
w 51 -50 -36 0
w 52 51 37 0
w 52 51 -37 0
w 52 -51 37 1
w 52 -51 -37 1
w 53 52 38 1
w 53 52 -38 1
w 53 -52 38 1
w 53 -52 -38 0
w 54 53 39 1
w 54 53 -39 1
w 54 -53 39 1
w 54 -53 -39 0
w 55 54 40 0
w 55 54 -40 1
w 55 -54 40 0
w 55 -54 -40 0
w 56 55 41 0.695855
w 56 55 -41 0.701554
w 56 -55 41 0.208338
w 56 -55 -41 0.00672681
w 57 56 42 1
w 57 56 -42 1
w 57 -56 42 1
w 57 -56 -42 0
w 58 57 43 0.443393
w 58 57 -43 0.199918
w 58 -57 43 0.683739
w 58 -57 -43 0.650972
w 59 58 44 0.583079
w 59 58 -44 0.348354
w 59 -58 44 0.773189
w 59 -58 -44 0.794527
w 60 59 45 0.858975
w 60 59 -45 0.902553
w 60 -59 45 0.987828
w 60 -59 -45 0.323195
w 61 46 0.0489228
w 61 -46 0.793454
w 62 61 47 0
w 62 61 -47 1
w 62 -61 47 0
w 62 -61 -47 1
w 63 62 48 0.828847
w 63 62 -48 0.761663
w 63 -62 48 0.128831
w 63 -62 -48 0.861513
w 64 63 49 1
w 64 63 -49 1
w 64 -63 49 1
w 64 -63 -49 0
w 65 64 50 1
w 65 64 -50 0
w 65 -64 50 1
w 65 -64 -50 1
w 66 65 51 1
w 66 65 -51 1
w 66 -65 51 0
w 66 -65 -51 0
w 67 66 52 0.850817
w 67 66 -52 0.962048
w 67 -66 52 0.271996
w 67 -66 -52 0.89974
w 68 67 53 0.398261
w 68 67 -53 0.92837
w 68 -67 53 0.527788
w 68 -67 -53 0.220381
w 69 68 54 0.508412
w 69 68 -54 0.0492281
w 69 -68 54 0.420217
w 69 -68 -54 0.637243
w 70 69 55 0.538574
w 70 69 -55 0.342175
w 70 -69 55 0.00642864
w 70 -69 -55 0.190819
w 71 70 56 0
w 71 70 -56 1
w 71 -70 56 1
w 71 -70 -56 1
w 72 71 57 1
w 72 71 -57 0
w 72 -71 57 1
w 72 -71 -57 1
w 73 72 58 0.151251
w 73 72 -58 0.689501
w 73 -72 58 0.0475906
w 73 -72 -58 0.0509908
w 74 73 59 1
w 74 73 -59 0
w 74 -73 59 0
w 74 -73 -59 0
w 75 74 60 0.481204
w 75 74 -60 0.715461
w 75 -74 60 0.0581314
w 75 -74 -60 0.118447
w 76 61 0.596706
w 76 -61 0.460621
w 77 76 62 0.787525
w 77 76 -62 0.95112
w 77 -76 62 0.934665
w 77 -76 -62 0.314327
w 78 77 63 1
w 78 77 -63 0
w 78 -77 63 1
w 78 -77 -63 0
w 79 78 64 0.978794
w 79 78 -64 0.0594423
w 79 -78 64 0.695238
w 79 -78 -64 0.130045
w 80 79 65 0.742829
w 80 79 -65 0.181036
w 80 -79 65 0.193947
w 80 -79 -65 0.188681
w 81 80 66 0
w 81 80 -66 1
w 81 -80 66 0
w 81 -80 -66 0
w 82 81 67 0.856443
w 82 81 -67 0.766388
w 82 -81 67 0.196577
w 82 -81 -67 0.453149
w 83 82 68 1
w 83 82 -68 0
w 83 -82 68 0
w 83 -82 -68 0
w 84 83 69 0.419045
w 84 83 -69 0.00726024
w 84 -83 69 0.315192
w 84 -83 -69 0.097405
w 85 84 70 1
w 85 84 -70 1
w 85 -84 70 1
w 85 -84 -70 0
w 86 85 71 0
w 86 85 -71 1
w 86 -85 71 1
w 86 -85 -71 1
w 87 86 72 0.50832
w 87 86 -72 0.716498
w 87 -86 72 0.345989
w 87 -86 -72 0.156261
w 88 87 73 1
w 88 87 -73 0
w 88 -87 73 1
w 88 -87 -73 1
w 89 88 74 0
w 89 88 -74 0
w 89 -88 74 0
w 89 -88 -74 1
w 90 89 75 0
w 90 89 -75 0
w 90 -89 75 0
w 90 -89 -75 1
w 91 76 1
w 91 -76 0
w 92 91 77 0.821729
w 92 91 -77 0.931358
w 92 -91 77 0.126682
w 92 -91 -77 0.969364
w 93 92 78 0.513962
w 93 92 -78 0.310946
w 93 -92 78 0.465846
w 93 -92 -78 0.0616396
w 94 93 79 0.182344
w 94 93 -79 0.407628
w 94 -93 79 0.975527
w 94 -93 -79 0.469217
w 95 94 80 0.898176
w 95 94 -80 0.952667
w 95 -94 80 0.26564
w 95 -94 -80 0.0478348
w 96 95 81 1
w 96 95 -81 1
w 96 -95 81 0
w 96 -95 -81 1
w 97 96 82 0
w 97 96 -82 1
w 97 -96 82 1
w 97 -96 -82 0
w 98 97 83 0
w 98 97 -83 1
w 98 -97 83 0
w 98 -97 -83 0
w 99 98 84 0.916497
w 99 98 -84 0.527776
w 99 -98 84 0.95072
w 99 -98 -84 0.382343
w 100 99 85 0.769985
w 100 99 -85 0.564687
w 100 -99 85 0.997044
w 100 -99 -85 0.745512
w 101 100 86 1
w 101 100 -86 0
w 101 -100 86 1
w 101 -100 -86 0
w 102 101 87 0.251895
w 102 101 -87 0.0346371
w 102 -101 87 0.0671462
w 102 -101 -87 0.593747
w 103 102 88 0.189603
w 103 102 -88 0.0193893
w 103 -102 88 0.0273796
w 103 -102 -88 0.156297
w 104 103 89 0.408257
w 104 103 -89 0.0434287
w 104 -103 89 0.538479
w 104 -103 -89 0.720492
w 105 104 90 0
w 105 104 -90 0
w 105 -104 90 1
w 105 -104 -90 1
w 106 91 1
w 106 -91 0
w 107 106 92 0.58402
w 107 106 -92 0.171477
w 107 -106 92 0.644471
w 107 -106 -92 0.617924
w 108 107 93 0.288159
w 108 107 -93 0.604496
w 108 -107 93 0.651324
w 108 -107 -93 0.979682
w 109 108 94 0.685961
w 109 108 -94 0.046828
w 109 -108 94 0.450138
w 109 -108 -94 0.333746
w 110 109 95 1
w 110 109 -95 0
w 110 -109 95 0
w 110 -109 -95 1
w 111 110 96 0.436156
w 111 110 -96 0.876076
w 111 -110 96 0.489875
w 111 -110 -96 0.493398
w 112 111 97 1
w 112 111 -97 0
w 112 -111 97 1
w 112 -111 -97 0
w 113 112 98 1
w 113 112 -98 1
w 113 -112 98 0
w 113 -112 -98 1
w 114 113 99 1
w 114 113 -99 0
w 114 -113 99 0
w 114 -113 -99 1
w 115 114 100 0.809027
w 115 114 -100 0.540193
w 115 -114 100 0.0413996
w 115 -114 -100 0.259165
w 116 115 101 0.27783
w 116 115 -101 0.728692
w 116 -115 101 0.235065
w 116 -115 -101 0.670557
w 117 116 102 0
w 117 116 -102 1
w 117 -116 102 1
w 117 -116 -102 1
w 118 117 103 0.996693
w 118 117 -103 0.621188
w 118 -117 103 0.678528
w 118 -117 -103 0.179995
w 119 118 104 0.931378
w 119 118 -104 0.262256
w 119 -118 104 0.497602
w 119 -118 -104 0.355704
w 120 119 105 0.845743
w 120 119 -105 0.558612
w 120 -119 105 0.00387658
w 120 -119 -105 0.79838
w 121 106 1
w 121 -106 0
w 122 121 107 0.953036
w 122 121 -107 0.0398479
w 122 -121 107 0.866572
w 122 -121 -107 0.826975
w 123 122 108 0
w 123 122 -108 1
w 123 -122 108 0
w 123 -122 -108 0
w 124 123 109 0
w 124 123 -109 1
w 124 -123 109 0
w 124 -123 -109 0
w 125 124 110 0.182
w 125 124 -110 0.373589
w 125 -124 110 0.780606
w 125 -124 -110 0.949385
w 126 125 111 0
w 126 125 -111 1
w 126 -125 111 1
w 126 -125 -111 0
w 127 126 112 0
w 127 126 -112 0
w 127 -126 112 1
w 127 -126 -112 1
w 128 127 113 0
w 128 127 -113 1
w 128 -127 113 0
w 128 -127 -113 0
w 129 128 114 1
w 129 128 -114 0
w 129 -128 114 0
w 129 -128 -114 1
w 130 129 115 0.474884
w 130 129 -115 0.425825
w 130 -129 115 0.101478
w 130 -129 -115 0.169944
w 131 130 116 1
w 131 130 -116 0
w 131 -130 116 1
w 131 -130 -116 1
w 132 131 117 0.849904
w 132 131 -117 0.679851
w 132 -131 117 0.509171
w 132 -131 -117 0.881753
w 133 132 118 0.728453
w 133 132 -118 0.917478
w 133 -132 118 0.0636919
w 133 -132 -118 0.360579
w 134 133 119 0.76221
w 134 133 -119 0.945741
w 134 -133 119 0.0256723
w 134 -133 -119 0.3273
w 135 134 120 1
w 135 134 -120 1
w 135 -134 120 0
w 135 -134 -120 0
w 136 121 1
w 136 -121 0
w 137 136 122 0
w 137 136 -122 1
w 137 -136 122 1
w 137 -136 -122 0
w 138 137 123 0.985667
w 138 137 -123 0.568866
w 138 -137 123 0.99054
w 138 -137 -123 0.834167
w 139 138 124 0
w 139 138 -124 0
w 139 -138 124 1
w 139 -138 -124 0
w 140 139 125 1
w 140 139 -125 1
w 140 -139 125 1
w 140 -139 -125 0
w 141 140 126 1
w 141 140 -126 1
w 141 -140 126 0
w 141 -140 -126 0
w 142 141 127 0.283829
w 142 141 -127 0.568045
w 142 -141 127 0.410001
w 142 -141 -127 0.593391
w 143 142 128 0.682191
w 143 142 -128 0.328779
w 143 -142 128 0.414964
w 143 -142 -128 0.124325
w 144 143 129 1
w 144 143 -129 0
w 144 -143 129 0
w 144 -143 -129 1
w 145 144 130 0.0782386
w 145 144 -130 0.833571
w 145 -144 130 0.287497
w 145 -144 -130 0.378761
w 146 145 131 0
w 146 145 -131 1
w 146 -145 131 1
w 146 -145 -131 1
w 147 146 132 0.652081
w 147 146 -132 0.16977
w 147 -146 132 0.961736
w 147 -146 -132 0.448255
w 148 147 133 0.574431
w 148 147 -133 0.732084
w 148 -147 133 0.473804
w 148 -147 -133 0.984432
w 149 148 134 1
w 149 148 -134 0
w 149 -148 134 1
w 149 -148 -134 0
w 150 149 135 0.744857
w 150 149 -135 0.0021753
w 150 -149 135 0.90094
w 150 -149 -135 0.404325
w 151 136 0
w 151 -136 1
w 152 151 137 1
w 152 151 -137 0
w 152 -151 137 0
w 152 -151 -137 1
w 153 152 138 1
w 153 152 -138 0
w 153 -152 138 0
w 153 -152 -138 0
w 154 153 139 0
w 154 153 -139 0
w 154 -153 139 0
w 154 -153 -139 1
w 155 154 140 0.491098
w 155 154 -140 0.832879
w 155 -154 140 0.745099
w 155 -154 -140 0.816573
w 156 155 141 0
w 156 155 -141 1
w 156 -155 141 1
w 156 -155 -141 1
w 157 156 142 1
w 157 156 -142 1
w 157 -156 142 0
w 157 -156 -142 0
w 158 157 143 0.102573
w 158 157 -143 0.243443
w 158 -157 143 0.0813081
w 158 -157 -143 0.963898
w 159 158 144 0.573194
w 159 158 -144 0.421984
w 159 -158 144 0.377592
w 159 -158 -144 0.856739
w 160 159 145 0.688351
w 160 159 -145 0.310054
w 160 -159 145 0.832719
w 160 -159 -145 0.447365
w 161 160 146 0.593385
w 161 160 -146 0.938464
w 161 -160 146 0.502008
w 161 -160 -146 0.338484
w 162 161 147 0.749458
w 162 161 -147 0.750207
w 162 -161 147 0.225864
w 162 -161 -147 0.826441
w 163 162 148 0.441548
w 163 162 -148 0.905601
w 163 -162 148 0.0564876
w 163 -162 -148 0.0615566
w 164 163 149 1
w 164 163 -149 1
w 164 -163 149 0
w 164 -163 -149 0
w 165 164 150 1
w 165 164 -150 0
w 165 -164 150 1
w 165 -164 -150 1
w 166 151 0.196494
w 166 -151 0.178414
w 167 166 152 0.0292127
w 167 166 -152 0.625779
w 167 -166 152 0.495623
w 167 -166 -152 0.622598
w 168 167 153 0.997631
w 168 167 -153 0.961083
w 168 -167 153 0.31928
w 168 -167 -153 0.747088
w 169 168 154 0.545144
w 169 168 -154 0.57353
w 169 -168 154 0.664166
w 169 -168 -154 0.986692
w 170 169 155 0
w 170 169 -155 0
w 170 -169 155 1
w 170 -169 -155 1
w 171 170 156 1
w 171 170 -156 0
w 171 -170 156 1
w 171 -170 -156 1
w 172 171 157 1
w 172 171 -157 0
w 172 -171 157 1
w 172 -171 -157 0
w 173 172 158 0.814992
w 173 172 -158 0.116122
w 173 -172 158 0.429532
w 173 -172 -158 0.310614
w 174 173 159 0.993775
w 174 173 -159 0.308245
w 174 -173 159 0.699803
w 174 -173 -159 0.313055
w 175 174 160 0
w 175 174 -160 0
w 175 -174 160 0
w 175 -174 -160 1
w 176 175 161 0.107994
w 176 175 -161 0.795912
w 176 -175 161 0.89314
w 176 -175 -161 0.73724
w 177 176 162 0.105517
w 177 176 -162 0.760044
w 177 -176 162 0.334123
w 177 -176 -162 0.445922
w 178 177 163 0.806182
w 178 177 -163 0.336337
w 178 -177 163 0.520659
w 178 -177 -163 0.79468
w 179 178 164 0
w 179 178 -164 1
w 179 -178 164 0
w 179 -178 -164 0
w 180 179 165 0
w 180 179 -165 0
w 180 -179 165 1
w 180 -179 -165 0
w 181 166 1
w 181 -166 0
w 182 181 167 0.912727
w 182 181 -167 0.464243
w 182 -181 167 0.763866
w 182 -181 -167 0.020721
w 183 182 168 0
w 183 182 -168 1
w 183 -182 168 1
w 183 -182 -168 0
w 184 183 169 0.116042
w 184 183 -169 0.208445
w 184 -183 169 0.413325
w 184 -183 -169 0.922224
w 185 184 170 0.933984
w 185 184 -170 0.716904
w 185 -184 170 0.968029
w 185 -184 -170 0.258396
w 186 185 171 0
w 186 185 -171 1
w 186 -185 171 0
w 186 -185 -171 0
w 187 186 172 0.475392
w 187 186 -172 0.76338
w 187 -186 172 0.820836
w 187 -186 -172 0.759256
w 188 187 173 1
w 188 187 -173 1
w 188 -187 173 0
w 188 -187 -173 0
w 189 188 174 0.876763
w 189 188 -174 0.160682
w 189 -188 174 0.450665
w 189 -188 -174 0.658683
w 190 189 175 0.96867
w 190 189 -175 0.774725
w 190 -189 175 0.13165
w 190 -189 -175 0.381995
w 191 190 176 0.676432
w 191 190 -176 0.315979
w 191 -190 176 0.413852
w 191 -190 -176 0.644461
w 192 191 177 0.740427
w 192 191 -177 0.151859
w 192 -191 177 0.586716
w 192 -191 -177 0.987288
w 193 192 178 0.346776
w 193 192 -178 0.46268
w 193 -192 178 0.700727
w 193 -192 -178 0.167612
w 194 193 179 0
w 194 193 -179 1
w 194 -193 179 0
w 194 -193 -179 0
w 195 194 180 0.346463
w 195 194 -180 0.571783
w 195 -194 180 0.0372903
w 195 -194 -180 0.00514529
w 196 181 1
w 196 -181 0
w 197 196 182 0.626638
w 197 196 -182 0.387955
w 197 -196 182 0.476819
w 197 -196 -182 0.303071
w 198 197 183 0.890671
w 198 197 -183 0.947532
w 198 -197 183 0.278309
w 198 -197 -183 0.631098
w 199 198 184 0
w 199 198 -184 1
w 199 -198 184 1
w 199 -198 -184 1
w 200 199 185 1
w 200 199 -185 0
w 200 -199 185 1
w 200 -199 -185 1
w 201 200 186 1
w 201 200 -186 1
w 201 -200 186 0
w 201 -200 -186 0
w 202 201 187 1
w 202 201 -187 0
w 202 -201 187 0
w 202 -201 -187 0
w 203 202 188 0.191735
w 203 202 -188 0.391346
w 203 -202 188 0.214754
w 203 -202 -188 0.668554
w 204 203 189 0.918689
w 204 203 -189 0.559225
w 204 -203 189 0.641949
w 204 -203 -189 0.196998
w 205 204 190 0
w 205 204 -190 1
w 205 -204 190 1
w 205 -204 -190 1
w 206 205 191 1
w 206 205 -191 0
w 206 -205 191 1
w 206 -205 -191 1
w 207 206 192 0
w 207 206 -192 0
w 207 -206 192 1
w 207 -206 -192 0
w 208 207 193 1
w 208 207 -193 0
w 208 -207 193 0
w 208 -207 -193 1
w 209 208 194 0.820889
w 209 208 -194 0.17668
w 209 -208 194 0.063786
w 209 -208 -194 0.0356428
w 210 209 195 0.758203
w 210 209 -195 0.954331
w 210 -209 195 0.404459
w 210 -209 -195 0.400152
w 211 196 1
w 211 -196 0
w 212 211 197 1
w 212 211 -197 0
w 212 -211 197 1
w 212 -211 -197 0
w 213 212 198 0
w 213 212 -198 1
w 213 -212 198 0
w 213 -212 -198 0
w 214 213 199 1
w 214 213 -199 1
w 214 -213 199 0
w 214 -213 -199 1
w 215 214 200 1
w 215 214 -200 0
w 215 -214 200 0
w 215 -214 -200 0
w 216 215 201 0
w 216 215 -201 0
w 216 -215 201 1
w 216 -215 -201 1
w 217 216 202 0.691971
w 217 216 -202 0.52081
w 217 -216 202 0.00528354
w 217 -216 -202 0.286752
w 218 217 203 0.218635
w 218 217 -203 0.690244
w 218 -217 203 0.581873
w 218 -217 -203 0.70581
w 219 218 204 0.0169883
w 219 218 -204 0.846223
w 219 -218 204 0.469559
w 219 -218 -204 0.558205
w 220 219 205 0.34531
w 220 219 -205 0.265781
w 220 -219 205 0.645207
w 220 -219 -205 0.394312
w 221 220 206 0.271437
w 221 220 -206 0.437404
w 221 -220 206 0.812034
w 221 -220 -206 0.570106
w 222 221 207 0
w 222 221 -207 0
w 222 -221 207 0
w 222 -221 -207 1
w 223 222 208 0
w 223 222 -208 1
w 223 -222 208 0
w 223 -222 -208 0
w 224 223 209 0.236332
w 224 223 -209 0.278881
w 224 -223 209 0.210791
w 224 -223 -209 0.818205
w 225 224 210 0.194302
w 225 224 -210 0.835193
w 225 -224 210 0.830914
w 225 -224 -210 0.663862